NAME: ./prFile/tspFile/tsp_file73.tsp
COMMENT: TSP file generated by Python
TYPE: TSP
DIMENSION: 40
EDGE_WEIGHT_TYPE: EUC_2D
NODE_COORD_SECTION
1 32 27
2 89 51
3 12 91
4 53 69
5 34 58
6 33 76
7 85 81
8 48 17
9 29 54
10 23 45
11 86 58
12 2 50
13 15 1
14 44 23
15 5 92
16 75 8
17 83 61
18 42 23
19 84 33
20 3 88
21 95 100
22 72 26
23 59 35
24 15 100
25 43 74
26 28 42
27 35 9
28 12 14
29 84 84
30 9 19
31 33 49
32 91 100
33 75 58
34 28 11
35 21 84
36 27 92
37 43 91
38 63 92
39 80 53
40 72 72
EOF
